120
125
156
200
97
144
124
131
222
135
158
105
161
156
173
109
178
122
100
123
141
117
155
105
111
192
98
316
228
162
128
228
114
171
122
117
182
181
147
170
131
175
204
203
127
136
166
183
105
173
183
242
171
120
157
173
237
77
194
167
206
129
189
92
113
187
161
190
165
111
107
108
148
190
129
155
129
155
132
130
108
173
207
142
131
187
117
191
110
108
121
107
193
109
140
102
163
231
197
181
